; benchmark generated from python API
(set-info :status unknown)
(declare-fun x_months () Int)
(declare-fun x_beta () Int)
(assert
 (<= (- 1200) x_months))
(assert
 (>= 1199 x_months))
(assert
 (>= x_beta 0))
(assert
 (let ((?x2128 (+ x_months 24003)))
 (let ((?x1346 (- ?x2128 (* (div (- ?x2128 1) 12) 12))))
 (let ((?x3593 (ite (or (= ?x1346 4) (= ?x1346 6) (= ?x1346 9) (= ?x1346 11)) 30 31)))
 (let (($x4203 (and (= (mod (div (- ?x2128 1) 12) 4) 0) (and (distinct (mod (div (- ?x2128 1) 12) 100) 0) true))))
 (let ((?x4755 (ite (or $x4203 (= (mod (div (- ?x2128 1) 12) 400) 0)) 29 28)))
 (< x_beta (ite (= ?x1346 2) ?x4755 ?x3593))))))))
(assert
 (let (($x4231 (and (= x_months (- (+ (* 2023 12) 1) 24003)) (<= 0 x_beta))))
 (or (> x_months (- (+ (* 2023 12) 1) 24003)) $x4231)))
(assert
 (let ((?x3974 (+ x_beta 1)))
(let ((?x4027 (+ (+ x_months 0) 24003)))
(let ((?x3837 (- ?x4027 (* (div (- ?x4027 1) 12) 12))))
(let ((?x821 (ite (or (= ?x3837 4) (= ?x3837 6) (= ?x3837 9) (= ?x3837 11)) 30 31)))
(let (($x2761 (and (= (mod (div (- ?x4027 1) 12) 4) 0) (and (distinct (mod (div (- ?x4027 1) 12) 100) 0) true))))
(let (($x1052 (or $x2761 (= (mod (div (- ?x4027 1) 12) 400) 0))))
(let ((?x3378 (ite (= ?x3837 2) (ite $x1052 29 28) ?x821)))
(let (($x3671 (> 1 ?x3974)))
(let ((?x1683 (ite $x3671 1 (ite (> ?x3974 ?x3378) ?x3378 ?x3974))))
(let ((?x887 (ite (> 1 ?x1683) 1 (ite (> ?x1683 ?x3378) ?x3378 ?x1683))))
(let ((?x4092 (ite (= 2 ?x3837) (ite $x1052 31 31) (ite (= 1 ?x3837) (ite $x1052 0 0) 0))))
(let ((?x788 (ite (= 4 ?x3837) (ite $x1052 91 90) (ite (= 3 ?x3837) (ite $x1052 60 59) ?x4092))))
(let ((?x3329 (ite (= 6 ?x3837) (ite $x1052 152 151) (ite (= 5 ?x3837) (ite $x1052 121 120) ?x788))))
(let ((?x3128 (ite (= 8 ?x3837) (ite $x1052 213 212) (ite (= 7 ?x3837) (ite $x1052 182 181) ?x3329))))
(let ((?x979 (ite (= 10 ?x3837) (ite $x1052 274 273) (ite (= 9 ?x3837) (ite $x1052 244 243) ?x3128))))
(let ((?x2227 (ite (= 12 ?x3837) (ite $x1052 335 334) (ite (= 11 ?x3837) (ite $x1052 305 304) ?x979))))
(let ((?x3831 (+ (* 365 (- (div (- ?x4027 1) 12) 1)) (div (- (div (- ?x4027 1) 12) 1) 4))))
(let ((?x3046 (+ (- ?x3831 (div (- (div (- ?x4027 1) 12) 1) 100)) (div (- (div (- ?x4027 1) 12) 1) 400))))
(let ((?x2021 (+ (+ (- (+ (+ ?x3046 ?x2227) (- ?x887 1)) 730179) 31) 730179)))
(let ((?x928 (mod ?x2021 146097)))
(let ((?x4225 (div ?x928 36524)))
(let ((?x2186 (ite (<= 4 ?x4225) 3 ?x4225)))
(let ((?x3390 (- ?x928 (* ?x2186 36524))))
(let ((?x3565 (mod ?x3390 1461)))
(let ((?x3004 (div ?x3565 365)))
(let ((?x1633 (ite (<= 4 ?x3004) 3 ?x3004)))
(let ((?x2594 (+ (+ (* (div ?x2021 146097) 400) (* ?x2186 100)) (* (div ?x3390 1461) 4))))
(let ((?x3269 (+ (+ ?x2594 ?x1633) 1)))
(let (($x1748 (or (and (= (mod ?x3269 4) 0) (and (distinct (mod ?x3269 100) 0) true)) (= (mod ?x3269 400) 0))))
(let ((?x3381 (- ?x3565 (* ?x1633 365))))
(let ((?x2324 (ite $x1748 31 31)))
(let (($x1920 (>= ?x3381 ?x2324)))
(let ((?x1338 (ite $x1920 (+ (- ?x3381 ?x2324) 1) (+ (- ?x3381 (ite $x1748 0 0)) 1))))
(let ((?x1726 (ite $x1748 60 59)))
(let (($x3349 (>= ?x3381 ?x1726)))
(let ((?x3407 (ite $x1748 91 90)))
(let (($x2737 (>= ?x3381 ?x3407)))
(let ((?x2720 (ite $x2737 (+ (- ?x3381 ?x3407) 1) (ite $x3349 (+ (- ?x3381 ?x1726) 1) ?x1338))))
(let ((?x3283 (ite $x1748 121 120)))
(let (($x2139 (>= ?x3381 ?x3283)))
(let ((?x5177 (ite $x1748 152 151)))
(let (($x3429 (>= ?x3381 ?x5177)))
(let ((?x4490 (ite $x3429 (+ (- ?x3381 ?x5177) 1) (ite $x2139 (+ (- ?x3381 ?x3283) 1) ?x2720))))
(let ((?x4040 (ite $x1748 182 181)))
(let (($x4580 (>= ?x3381 ?x4040)))
(let ((?x4540 (ite $x1748 213 212)))
(let (($x1082 (>= ?x3381 ?x4540)))
(let ((?x4948 (ite $x1082 (+ (- ?x3381 ?x4540) 1) (ite $x4580 (+ (- ?x3381 ?x4040) 1) ?x4490))))
(let ((?x5178 (ite $x1748 244 243)))
(let (($x3285 (>= ?x3381 ?x5178)))
(let ((?x4493 (ite $x1748 274 273)))
(let (($x4369 (>= ?x3381 ?x4493)))
(let ((?x3501 (ite $x4369 (+ (- ?x3381 ?x4493) 1) (ite $x3285 (+ (- ?x3381 ?x5178) 1) ?x4948))))
(let ((?x2838 (ite $x1748 305 304)))
(let (($x4588 (>= ?x3381 ?x2838)))
(let ((?x4479 (ite $x1748 335 334)))
(let (($x2319 (>= ?x3381 ?x4479)))
(let ((?x3890 (ite $x2319 (+ (- ?x3381 ?x4479) 1) (ite $x4588 (+ (- ?x3381 ?x2838) 1) ?x3501))))
(let (($x1441 (= 31 0)))
(let ((?x2195 (+ (+ x_months 1) 24003)))
(let ((?x3877 (- ?x2195 (* (div (- ?x2195 1) 12) 12))))
(let ((?x3379 (ite (or (= ?x3877 4) (= ?x3877 6) (= ?x3877 9) (= ?x3877 11)) 30 31)))
(let (($x2768 (and (= (mod (div (- ?x2195 1) 12) 4) 0) (and (distinct (mod (div (- ?x2195 1) 12) 100) 0) true))))
(let (($x2001 (or $x2768 (= (mod (div (- ?x2195 1) 12) 400) 0))))
(let ((?x4409 (ite (= ?x3877 2) (ite $x2001 29 28) ?x3379)))
(let ((?x4002 (ite $x3671 1 (ite (> ?x3974 ?x4409) ?x4409 ?x3974))))
(let ((?x4342 (ite (> 1 ?x4002) 1 (ite (> ?x4002 ?x4409) ?x4409 ?x4002))))
(let ((?x4612 (ite (= 2 ?x3877) (ite $x2001 31 31) (ite (= 1 ?x3877) (ite $x2001 0 0) 0))))
(let ((?x2655 (ite (= 4 ?x3877) (ite $x2001 91 90) (ite (= 3 ?x3877) (ite $x2001 60 59) ?x4612))))
(let ((?x4511 (ite (= 6 ?x3877) (ite $x2001 152 151) (ite (= 5 ?x3877) (ite $x2001 121 120) ?x2655))))
(let ((?x3825 (ite (= 8 ?x3877) (ite $x2001 213 212) (ite (= 7 ?x3877) (ite $x2001 182 181) ?x4511))))
(let ((?x2853 (ite (= 10 ?x3877) (ite $x2001 274 273) (ite (= 9 ?x3877) (ite $x2001 244 243) ?x3825))))
(let ((?x4743 (ite (= 12 ?x3877) (ite $x2001 335 334) (ite (= 11 ?x3877) (ite $x2001 305 304) ?x2853))))
(let ((?x2603 (+ (* 365 (- (div (- ?x2195 1) 12) 1)) (div (- (div (- ?x2195 1) 12) 1) 4))))
(let ((?x1365 (+ (- ?x2603 (div (- (div (- ?x2195 1) 12) 1) 100)) (div (- (div (- ?x2195 1) 12) 1) 400))))
(let ((?x4770 (+ (+ (- (+ (+ ?x1365 ?x4743) (- ?x4342 1)) 730179) 0) 730179)))
(let ((?x3861 (mod ?x4770 146097)))
(let ((?x2809 (div ?x3861 36524)))
(let ((?x2114 (ite (<= 4 ?x2809) 3 ?x2809)))
(let ((?x2290 (- ?x3861 (* ?x2114 36524))))
(let ((?x1207 (mod ?x2290 1461)))
(let ((?x1746 (div ?x1207 365)))
(let ((?x3868 (ite (<= 4 ?x1746) 3 ?x1746)))
(let ((?x4235 (+ (+ (* (div ?x4770 146097) 400) (* ?x2114 100)) (* (div ?x2290 1461) 4))))
(let ((?x3878 (+ (+ ?x4235 ?x3868) 1)))
(let (($x2661 (or (and (= (mod ?x3878 4) 0) (and (distinct (mod ?x3878 100) 0) true)) (= (mod ?x3878 400) 0))))
(let ((?x1464 (- ?x1207 (* ?x3868 365))))
(let ((?x789 (ite $x2661 31 31)))
(let (($x1866 (>= ?x1464 ?x789)))
(let ((?x2511 (ite $x1866 (+ (- ?x1464 ?x789) 1) (+ (- ?x1464 (ite $x2661 0 0)) 1))))
(let ((?x4506 (ite $x2661 60 59)))
(let (($x1563 (>= ?x1464 ?x4506)))
(let ((?x2824 (ite $x2661 91 90)))
(let (($x3430 (>= ?x1464 ?x2824)))
(let ((?x3766 (ite $x3430 (+ (- ?x1464 ?x2824) 1) (ite $x1563 (+ (- ?x1464 ?x4506) 1) ?x2511))))
(let ((?x2642 (ite $x2661 121 120)))
(let (($x1085 (>= ?x1464 ?x2642)))
(let ((?x1735 (ite $x2661 152 151)))
(let (($x1382 (>= ?x1464 ?x1735)))
(let ((?x4537 (ite $x1382 (+ (- ?x1464 ?x1735) 1) (ite $x1085 (+ (- ?x1464 ?x2642) 1) ?x3766))))
(let ((?x659 (ite $x2661 182 181)))
(let (($x1111 (>= ?x1464 ?x659)))
(let ((?x2507 (ite $x2661 213 212)))
(let (($x615 (>= ?x1464 ?x2507)))
(let ((?x2814 (ite $x615 (+ (- ?x1464 ?x2507) 1) (ite $x1111 (+ (- ?x1464 ?x659) 1) ?x4537))))
(let ((?x4491 (ite $x2661 244 243)))
(let (($x3473 (>= ?x1464 ?x4491)))
(let ((?x2041 (ite $x2661 274 273)))
(let (($x1574 (>= ?x1464 ?x2041)))
(let ((?x534 (ite $x1574 (+ (- ?x1464 ?x2041) 1) (ite $x3473 (+ (- ?x1464 ?x4491) 1) ?x2814))))
(let ((?x3433 (ite $x2661 305 304)))
(let (($x4898 (>= ?x1464 ?x3433)))
(let ((?x4796 (ite $x2661 335 334)))
(let (($x2714 (>= ?x1464 ?x4796)))
(let ((?x1671 (ite $x2714 (+ (- ?x1464 ?x4796) 1) (ite $x4898 (+ (- ?x1464 ?x3433) 1) ?x534))))
(let (($x750 (= 0 0)))
(let ((?x4531 (ite $x2139 5 (ite $x2737 4 (ite $x3349 3 (ite $x1920 2 1))))))
(let ((?x2121 (ite $x3285 9 (ite $x1082 8 (ite $x4580 7 (ite $x3429 6 ?x4531))))))
(let ((?x3119 (ite $x2319 12 (ite $x4588 11 (ite $x4369 10 ?x2121)))))
(let ((?x2293 (+ (* (ite $x1441 (div (- ?x4027 1) 12) ?x3269) 12) (ite $x1441 ?x3837 ?x3119))))
(let ((?x2773 (- ?x2293 24003)))
(let ((?x3477 (ite $x1085 5 (ite $x3430 4 (ite $x1563 3 (ite $x1866 2 1))))))
(let ((?x4082 (ite $x3473 9 (ite $x615 8 (ite $x1111 7 (ite $x1382 6 ?x3477))))))
(let ((?x2931 (+ (* (ite $x750 (div (- ?x2195 1) 12) ?x3878) 12) (ite $x750 ?x3877 (ite $x2714 12 (ite $x4898 11 (ite $x1574 10 ?x4082)))))))
(let ((?x2283 (- ?x2931 24003)))
(let (($x5450 (and (= ?x2283 ?x2773) (<= (- (ite $x750 ?x4342 ?x1671) 1) (- (ite $x1441 ?x887 ?x3890) 1)))))
(not (or (< ?x2283 ?x2773) $x5450)))))))))))))))))))))))))))))))))))))))))))))))))))))))))))))))))))))))))))))))))))))))))))))))))))))))))))))))))))))))))))))))))
(check-sat)
